(set-info :Origin "This instance was generated by: BanditFuzz-- an RL fuzzer for SMT solvers" )
(set-info :Author "Joe Scott, Fed Mora, Vijay Ganesh" )
(set-info :Contact "Joe Scott, joseph.scott@uwaterloo.ca")
; solvers/z3.sh
; 	time => 1.031783103942871
; 	answer => sat
; solvers/bitwuzla.sh
; 	time => 0.5808007717132568
; 	answer => sat
; solvers/cvc4.sh
; 	time => 0.0939481258392334
; 	answer => err
(set-logic QF_BV)
(declare-const bool_0 Bool)
(declare-const bool_1 Bool)
(declare-const bool_2 Bool)
(declare-const bool_3 Bool)
(declare-const bool_4 Bool)
(declare-const bv_0 (_ BitVec 32))
(declare-const bv_1 (_ BitVec 32))
(declare-const bv_2 (_ BitVec 32))
(declare-const bv_3 (_ BitVec 32))
(declare-const bv_4 (_ BitVec 32))
(assert (bvule (bvor (bvsub #xa74df6d5  bv_1) (bvsub bv_3 bv_3)) (bvand (bvxnor #xcb18114b  #x2b02a563 ) (bvsub bv_1 bv_4))))
(assert (bvugt (bvmul (bvsrem bv_4 #x0b0ee13d ) (bvmul bv_3 bv_3)) (bvsmod (bvnor bv_0 #x2fe21539 ) (bvsmod bv_1 bv_2))))
(assert (xor (bvsgt (bvadd #x1a1824cf  #x80c8e051 ) (bvor #x78538c84  bv_2)) (=> (and true bool_0) (bvule bv_3 #xa99bed33 ))))
(assert (bvsle (bvxnor (bvurem bv_4 #xfbaaf294 ) (bvsmod bv_2 bv_3)) (bvor (bvadd bv_3 #x6ad3eaa9 ) (bvshl bv_4 #xe4b08006 ))))
(assert (bvsle (bvsdiv (bvsdiv bv_0 #xdb03db29 ) (bvurem bv_3 #xd49377d4 )) (bvxnor (bvadd bv_1 bv_1) (bvurem bv_2 #x2a0d7ee3 ))))
(check-sat)
(exit)
